proyfinal/src/viki/013/experimentInOfficeAgust.take6.output/353f17a4-cda5-48ad-b035-bd4f9e507c17.als.dat
{'cnf.clauses': '118081',
 'cnf.totvars': '69608',
 'conflict literals': '73',
 'conflicts': '35',
 'decisions': '26144',
 'memused.mb': '16.78',
 'outcome': 'UNSAT',
 'propagations': '62247',
 'restarts': '1',
 'solver.msecs': 37,
 'task.msecs': 91}
