proyfinal/src/viki/013/experimentInOfficeAgust.take6.output/353f17a4-cda5-48ad-b035-bd4f9e507c17.als.out
Reading from standard input... Use '--help' for help.
============================[ Problem Statistics ]=============================
|                                                                             |
|  Number of variables:         69608                                         |
|  Number of clauses:          118081                                         |
|  Parse time:                   0.03 s                                       |
|                                                                             |
============================[ Search Statistics ]==============================
| Conflicts |          ORIGINAL         |          LEARNT          | Progress |
|           |    Vars  Clauses Literals |    Limit  Clauses Lit/Cl |          |
===============================================================================
===============================================================================
restarts              : 1
conflicts             : 35             (933 /sec)
decisions             : 26144          (0.00 % random) (696746 /sec)
propagations          : 62247          (1658903 /sec)
conflict literals     : 73             (1.35 % deleted)
Memory used           : 16.78 MB
CPU time              : 0.037523 s

UNSATISFIABLE
